22 3
5 8 7
0 0 0 0 20 2 3 4 5 6 7 8 9 10 11 12 13 14 15 16 17 18 19 20 21
5 4 1 2 1 22
2 5 2 1 1 22
2 1 3 1 1 20
3 1 1 1 1 22
5 2 3 1 1 13
6 2 2 1 1 19
5 1 1 1 1 16
3 2 3 2 1 22
5 2 2 1 1 17
2 5 3 2 1 22
3 1 2 2 1 17
6 2 1 2 1 22
6 5 3 2 1 22
1 3 1 1 1 22
6 1 3 1 1 22
5 4 2 1 1 22
1 4 2 2 1 22
5 4 3 1 1 22
5 4 2 1 1 22
3 4 1 1 1 22
0 0 0 0 0
